visualization/result.dat
10 & 20 & 4 & 2010 & 4744 & 0.6004\\
10 & 30 & 4 & 3010 & 7108 & 1.0665 \\
20 & 20 & 4 & 8020 & 17506 & 4.9442\\
20 & 30 & 4 & 12020 & 26241 & 10.4839\\
30 & 20 & 4 & 18030 & 38392 & 24.3956\\
30 & 30 & 4 & 27030 & 57581 & 54.4755\\
40 & 20 & 4 & 32040 & 67157 & 90.1807 \\
40 & 30 & 4 & 48040 & 100727 & 197.9816 \\
50 & 20 & 4 & 50050 & 103995 & 243.9002\\
50 & 30 & 4 & 75050 & 155988 & 520.4339\\